
List of user-set options:

                                    Name   Value                used
                           compl_inf_tol = 1                     yes
                         constr_viol_tol = 1                     yes
                            dual_inf_tol = 1000                  yes
                           linear_solver = ma97                  yes
                              ma86_small = 1e-30                  no
                                  ma86_u = 0.0001                 no
                              ma97_order = best                  yes
                              ma97_small = 1e-30                 yes
                            ma97_switch1 = at_start              yes
                            ma97_switch2 = od_hd_reuse           yes
                                  ma97_u = 1e-06                 yes
                               ma97_umax = 0.5                   yes
                                max_iter = 2000                  yes
                    max_refinement_steps = 20                    yes
                    min_refinement_steps = 5                     yes
                                 mu_init = 1e-06                 yes
           mu_superlinear_decrease_power = 1.25                  yes
                   nlp_scaling_min_value = 1e-08                 yes
                        option_file_name = Preset_Case:_300_NCP.opt  yes
                             output_file = ./tmp/Preset_Case:_300_NCP.output  yes
                      print_user_options = yes                   yes
        required_infeasibility_reduction = 1                      no
                                     tol = 1e-08                 yes
                   warm_start_bound_frac = 1e-20                 yes
                   warm_start_bound_push = 1e-20                 yes
                   warm_start_init_point = yes                   yes
              warm_start_mult_bound_push = 1e-20                 yes
                warm_start_mult_init_max = 1e+40                 yes
             warm_start_slack_bound_frac = 1e-20                 yes
             warm_start_slack_bound_push = 1e-20                 yes

******************************************************************************
This program contains Ipopt, a library for large-scale nonlinear optimization.
 Ipopt is released as open source code under the Eclipse Public License (EPL).
         For more information visit http://projects.coin-or.org/Ipopt
******************************************************************************

This is Ipopt version 3.12.10, running with linear solver ma97.

Number of nonzeros in equality constraint Jacobian...:   117140
Number of nonzeros in inequality constraint Jacobian.:      213
Number of nonzeros in Lagrangian Hessian.............:    47462

Total number of variables............................:    29971
                     variables with only lower bounds:    11312
                variables with lower and upper bounds:    15132
                     variables with only upper bounds:        0
Total number of equality constraints.................:    29864
Total number of inequality constraints...............:       25
        inequality constraints with only lower bounds:        4
   inequality constraints with lower and upper bounds:        0
        inequality constraints with only upper bounds:       21

iter    objective    inf_pr   inf_du lg(mu)  ||d||  lg(rg) alpha_du alpha_pr  ls
   0 -3.5773502e-02 1.11e-01 2.99e+02  -6.0 0.00e+00    -  0.00e+00 0.00e+00   0
In iteration 0, 5 Slacks too small, adjusting variable bounds
   1 -3.5773502e-02 1.11e-01 9.18e+03  -6.0 9.55e+05  -2.0 8.53e-09 2.34e-16f  1
   2 -3.5773502e-02 1.11e-01 9.18e+03  -6.0 9.05e+02  -2.5 6.94e-06 1.98e-09f  1
   3 -3.5776138e-02 1.11e-01 9.18e+03  -6.0 1.24e+03  -3.0 5.80e-06 1.87e-04f  1
   4 -3.5776197e-02 1.11e-01 9.18e+03  -6.0 1.23e+03  -2.5 1.02e-05 4.03e-06f  2
   5 -3.5777089e-02 1.11e-01 9.18e+03  -6.0 1.23e+03  -3.0 1.03e-05 6.62e-05h  1
   6 -3.5777701e-02 1.11e-01 9.18e+03  -6.0 1.23e+03  -2.6 1.02e-04 4.42e-05h  1
   7 -3.5789556e-02 1.11e-01 9.18e+03  -6.0 1.23e+03  -3.1 7.74e-05 6.66e-04f  1
   8 -3.5793220e-02 1.11e-01 9.18e+03  -6.0 1.23e+03  -2.6 8.20e-05 2.29e-04f  1
   9 -3.5898975e-02 1.10e-01 1.22e+04  -6.0 1.22e+03  -3.1 8.88e-05 6.10e-03f  1
iter    objective    inf_pr   inf_du lg(mu)  ||d||  lg(rg) alpha_du alpha_pr  ls
  10 -3.5903010e-02 1.10e-01 9.17e+03  -6.0 1.18e+03  -2.7 1.34e-03 2.76e-04h  1
  11 -3.5945062e-02 1.10e-01 1.25e+04  -6.0 1.18e+03  -3.2 1.88e-02 3.01e-03f  1
  12 -3.6042897e-02 1.09e-01 1.03e+05  -6.0 1.15e+03  -2.7 3.40e-02 7.23e-03f  1
  13 -3.6057035e-02 1.09e-01 1.21e+05  -6.0 1.09e+03  -3.2 3.16e-02 1.86e-03h  1
  14 -3.6131413e-02 1.08e-01 4.36e+05  -6.0 1.07e+03  -2.8 1.47e-01 7.74e-03f  1
  15 -3.6172953e-02 1.08e-01 4.32e+05  -6.0 1.00e+03  -3.3 1.57e-02 6.21e-03h  1
  16 -3.6244044e-02 1.07e-01 4.57e+05  -6.0 9.52e+02  -2.8 3.62e-02 8.82e-03h  1
  17 -3.6381638e-02 2.66e+00 4.21e+05  -6.0 8.74e+02  -3.3 7.44e-02 3.84e-02h  1
  18 -3.6560747e-02 7.06e+00 3.59e+05  -6.0 6.31e+02  -2.9 9.99e-01 1.11e-01h  1
  19 -3.6504581e-02 7.03e+00 1.89e+05  -6.0 2.97e+02  -3.4 2.31e-01 4.16e-03h  5
iter    objective    inf_pr   inf_du lg(mu)  ||d||  lg(rg) alpha_du alpha_pr  ls
  20 -3.6457858e-02 6.98e+00 1.09e+05  -6.0 2.72e+02  -2.9 7.48e-01 8.13e-03h  4
  21 -3.6451665e-02 6.98e+00 1.08e+05  -6.0 3.04e+02  -3.4 1.13e-06 4.21e-04h  8
  22r-3.6451665e-02 6.98e+00 1.00e+03   0.5 0.00e+00  -2.1 0.00e+00 4.12e-07R  3
  23r-3.6312805e-02 6.98e+00 1.00e+03   0.5 6.85e+05    -  2.62e-09 1.64e-08f  1
  24r-3.6310576e-02 6.98e+00 4.81e+03   0.5 9.82e+03    -  3.08e-06 5.96e-08f  1
  25r-3.5834123e-02 6.94e+00 4.56e+03   0.5 6.43e+03    -  1.81e-06 5.52e-06f  1
  26 -3.5834136e-02 6.94e+00 3.25e+05  -6.0 1.06e+02    -  2.44e-02 4.97e-05h  1
  27 -3.5848196e-02 6.61e+00 2.69e+08  -6.0 1.81e+02    -  5.71e-05 4.72e-02h  1
  28 -3.5854356e-02 6.44e+00 2.62e+08  -6.0 1.65e+02    -  1.04e-02 2.63e-02h  1
  29 -3.5866717e-02 6.04e+00 2.46e+08  -6.0 1.56e+02    -  9.87e-02 6.16e-02h  1
iter    objective    inf_pr   inf_du lg(mu)  ||d||  lg(rg) alpha_du alpha_pr  ls
  30 -3.5828001e-02 5.58e+00 2.27e+08  -6.0 1.34e+02    -  3.91e-02 7.70e-02h  1
  31 -3.5768382e-02 5.00e+00 2.03e+08  -6.0 1.14e+02    -  3.15e-01 1.04e-01h  1
  32 -3.5581449e-02 3.88e+00 1.58e+08  -6.0 8.74e+01    -  2.46e-02 2.23e-01h  1
  33 -3.5581460e-02 3.88e+00 1.58e+08  -6.0 3.13e+02    -  6.54e-02 3.39e-05h  1
  34 -3.5582267e-02 3.87e+00 1.58e+08  -6.0 3.14e+02    -  9.18e-02 1.33e-03h  1
  35 -3.5696257e-02 3.11e+00 1.27e+08  -6.0 3.11e+02    -  1.31e-01 1.95e-01h  1
  36r-3.5696257e-02 3.11e+00 1.00e+03   0.1 0.00e+00    -  0.00e+00 4.79e-07R  4
  37r-3.5646105e-02 3.11e+00 2.43e+03   0.1 6.70e+03    -  5.15e-06 1.73e-06f  1
  38 -3.5646100e-02 3.11e+00 7.18e+06  -6.0 1.56e+02    -  3.97e-01 2.40e-05h  1
  39 -3.5656487e-02 3.05e+00 4.89e+09  -6.0 5.80e+02    -  3.01e-05 2.05e-02h  1
iter    objective    inf_pr   inf_du lg(mu)  ||d||  lg(rg) alpha_du alpha_pr  ls
  40 -3.5728384e-02 2.97e+00 4.76e+09  -6.0 1.44e+02    -  1.22e-02 2.60e-02h  1
  41 -3.5728171e-02 2.96e+00 4.75e+09  -6.0 1.40e+02    -  1.35e-02 9.19e-04h  1
  42 -2.5973889e-02 2.92e+00 4.68e+09  -6.0 1.69e+02    -  1.33e-04 1.48e-02h  5
  43 -2.0881703e-02 2.90e+00 4.65e+09  -6.0 1.65e+02    -  7.78e-02 8.12e-03h  6
  44 -2.0560108e-02 2.89e+00 4.64e+09  -6.0 1.63e+02    -  2.91e-02 5.35e-04h 10
  45 -2.0519010e-02 2.89e+00 4.64e+09  -6.0 1.64e+02    -  1.69e-01 6.87e-05h 13
  46 -2.0507164e-02 2.89e+00 4.64e+09  -6.0 1.66e+02    -  2.84e-02 2.00e-05h 15
  47  1.7926466e-01 1.91e+00 3.07e+09  -6.0 1.66e+02    -  2.26e-01 3.39e-01h  1
  48  1.0201710e-01 6.02e-01 9.68e+08  -6.0 8.30e+01    -  6.68e-01 6.85e-01h  1
  49 -7.0780125e-03 1.63e-01 2.63e+08  -6.0 1.76e+01    -  8.82e-01 7.29e-01h  1
iter    objective    inf_pr   inf_du lg(mu)  ||d||  lg(rg) alpha_du alpha_pr  ls
  50 -1.0684793e-02 1.44e-01 2.31e+08  -6.0 4.18e+01    -  5.23e-01 1.19e-01h  1
  51 -3.6628429e-02 1.36e-02 1.22e+07  -6.0 8.86e+00    -  9.57e-03 9.47e-01h  1
  52 -3.6628499e-02 1.36e-02 1.22e+07  -6.0 8.83e+00    -  2.50e-02 6.57e-05h  1
  53 -3.7524684e-02 1.47e-02 7.66e+03  -6.0 9.02e+00    -  8.31e-01 1.00e+00f  1
  54 -4.1615929e-02 2.08e-01 2.17e+04  -6.0 6.86e+01    -  2.42e-01 6.08e-01h  1
  55 -4.5686672e-02 6.78e-01 2.45e+04  -6.0 6.02e+01    -  1.10e-01 6.73e-01h  1
  56 -4.8072064e-02 5.56e-01 1.73e+04  -6.0 1.08e+02    -  2.93e-01 1.97e-01h  1
  57 -5.8631274e-02 1.30e+00 1.44e+04  -6.0 1.12e+02    -  1.15e-01 8.32e-01h  1
  58 -5.9182602e-02 1.21e+00 1.45e+04  -6.0 5.40e+01    -  2.66e-05 7.01e-02h  1
  59 -6.6319472e-02 3.34e+00 1.12e+04  -6.0 7.82e+01    -  2.88e-01 9.32e-01h  1
iter    objective    inf_pr   inf_du lg(mu)  ||d||  lg(rg) alpha_du alpha_pr  ls
  60 -6.6318962e-02 3.30e+00 1.09e+04  -6.0 3.04e+00  -2.6 2.18e-02 1.20e-02h  1
  61 -6.6322953e-02 3.27e+00 1.05e+04  -6.0 3.33e+00  -2.1 4.57e-02 9.09e-03h  1
  62 -6.6322933e-02 3.17e+00 1.02e+04  -6.0 3.83e+00  -2.6 3.29e-02 3.22e-02h  1
  63 -6.6301019e-02 2.96e+00 7.21e+03  -6.0 3.83e+00  -3.1 3.51e-01 6.57e-02h  1
  64 -6.6051929e-02 3.73e-01 4.46e+03  -6.0 3.78e+00  -3.6 6.76e-02 8.77e-01h  1
  65 -6.6097755e-02 2.91e-01 3.89e+03  -6.0 4.90e-01  -4.0 8.84e-02 2.22e-01h  1
  66 -6.6187313e-02 2.06e-01 1.01e+03  -6.0 2.04e+00  -4.5 8.83e-01 2.92e-01f  1
  67 -6.6773468e-02 1.36e-01 6.45e+02  -6.0 1.37e+01  -5.0 1.57e-01 3.37e-01h  1
  68 -6.7128378e-02 6.52e-03 8.12e+01  -6.0 1.67e+00  -4.6 5.94e-01 1.00e+00f  1
  69 -6.8245329e-02 9.58e-02 2.83e+01  -6.0 5.13e+00  -5.1 5.09e-01 8.07e-01h  1
iter    objective    inf_pr   inf_du lg(mu)  ||d||  lg(rg) alpha_du alpha_pr  ls
  70 -6.9227594e-02 1.27e-01 3.13e+01  -6.0 9.75e+00  -5.5 4.83e-04 3.95e-01f  1
  71 -6.9250312e-02 1.23e-01 2.91e+01  -6.0 7.50e+00  -4.2 5.33e-02 2.80e-02f  1
  72 -6.9378263e-02 8.13e-02 1.49e+02  -6.0 1.69e+00  -4.7 3.36e-05 3.56e-01h  1
  73 -6.9315164e-02 5.98e-02 1.10e+02  -6.0 9.70e-01  -3.3 4.55e-02 2.64e-01h  1
  74 -6.9344660e-02 3.93e-02 7.78e+01  -6.0 3.44e-01  -3.8 1.64e-01 3.43e-01f  1
  75 -6.9315574e-02 3.88e-03 9.47e+01  -6.0 5.07e-01  -3.4 4.43e-01 1.00e+00f  1
  76 -6.9380792e-02 5.27e-04 2.61e+01  -6.0 2.74e-01  -3.9 9.80e-01 8.23e-01h  1
  77 -6.9557306e-02 2.75e-03 1.01e+01  -6.0 7.83e-01  -4.4 2.48e-02 7.79e-01f  1
  78 -6.9622899e-02 2.41e-03 5.66e+00  -6.0 2.19e+00  -4.8 5.10e-01 2.31e-01f  1
  79 -6.9825366e-02 1.02e-02 1.03e+01  -6.0 4.81e+00  -5.3 1.00e+00 2.29e-01f  1
iter    objective    inf_pr   inf_du lg(mu)  ||d||  lg(rg) alpha_du alpha_pr  ls
  80 -7.0355633e-02 7.15e-02 7.91e+00  -6.0 1.16e+01  -5.8 4.33e-01 2.61e-01h  1
  81 -7.1452645e-02 3.70e-01 1.10e+01  -6.0 2.49e+01  -6.3 5.20e-01 2.76e-01h  1
  82 -7.5295557e-02 3.03e+00 9.12e+01  -6.0 6.16e+01  -6.7 1.73e-01 5.77e-01h  1
  83 -7.6200099e-02 2.74e+00 7.60e+01  -6.0 1.63e+02  -7.2 2.70e-01 9.50e-02h  1
  84 -7.7918302e-02 1.44e+00 7.92e+01  -6.0 7.39e+01  -6.8 2.19e-01 4.62e-01h  1
  85 -7.8651944e-02 1.33e+00 6.81e+01  -6.0 2.30e+02  -7.3 2.40e-01 7.22e-02h  1
  86 -7.9678680e-02 8.83e-01 5.33e+01  -6.0 8.50e+01  -6.8 7.69e-01 2.72e-01h  1
  87 -8.5039109e-02 2.93e+00 5.53e+01  -6.0 2.20e+02  -7.3 2.91e-01 5.27e-01h  1
  88 -8.6343073e-02 2.21e+00 3.53e+01  -6.0 6.85e+01  -6.9 4.26e-01 4.13e-01h  1
  89 -9.2622514e-02 6.45e+00 1.44e+02  -6.0 2.03e+02  -7.4 1.99e-01 6.77e-01h  1
iter    objective    inf_pr   inf_du lg(mu)  ||d||  lg(rg) alpha_du alpha_pr  ls
  90 -9.3519337e-02 8.81e+00 1.30e+02  -6.0 1.38e+03  -7.8 7.87e-02 4.62e-02h  1
  91 -9.5306966e-02 8.88e+00 1.03e+02  -6.0 1.97e+02  -7.4 5.62e-01 2.33e-01h  1
  92 -9.5686079e-02 7.60e+00 8.71e+01  -6.0 7.31e+01  -7.0 4.51e-01 1.51e-01h  1
  93 -9.6610734e-02 6.10e+00 6.45e+01  -6.0 1.67e+02  -7.5 1.00e+00 2.29e-01h  1
  94 -1.0044683e-01 5.91e+00 5.75e+01  -6.0 5.66e+02  -7.9 1.84e-01 4.53e-01h  1
  95 -1.0384121e-01 5.55e+00 6.36e+01  -6.0 1.43e+03  -8.4 3.69e-01 2.63e-01h  1
  96 -1.1155000e-01 1.30e+01 8.29e+01  -6.0 2.11e+03  -8.9 2.21e-01 3.96e-01h  1
  97 -1.1215983e-01 3.03e+00 1.70e+01  -6.0 1.06e+02  -7.6 7.67e-01 7.78e-01h  1
  98 -1.1435088e-01 1.43e+00 3.65e+02  -6.0 2.60e+02  -8.1 5.97e-01 1.00e+00h  1
  99 -1.1499859e-01 1.05e+00 2.48e+02  -6.0 4.40e+02  -8.5 1.76e-01 1.40e-01h  1
iter    objective    inf_pr   inf_du lg(mu)  ||d||  lg(rg) alpha_du alpha_pr  ls
 100 -1.1548827e-01 1.02e+00 1.91e+03  -6.0 1.23e+03  -9.0 2.95e-01 5.00e-02h  1
 101 -1.1720607e-01 1.22e+00 1.45e+04  -6.0 4.54e+02  -8.6 9.33e-02 4.07e-01h  1
 102 -1.1856605e-01 1.34e+00 1.20e+04  -6.0 1.07e+03  -9.1 3.04e-01 1.75e-01h  1
 103 -1.1977291e-01 2.35e+00 5.58e+03  -6.0 4.12e+02  -8.6 2.60e-01 5.33e-01h  1
 104 -1.2007367e-01 2.21e+00 5.27e+03  -6.0 1.42e+03  -9.1 4.46e-01 5.68e-02h  1
 105 -1.2022607e-01 1.99e+00 4.74e+03  -6.0 3.45e+02  -8.7 2.34e-01 1.02e-01h  1
 106 -1.2251845e-01 1.66e+01 1.66e+03  -6.0 1.39e+03  -9.2 1.41e-01 6.49e-01h  1
 107 -1.2333254e-01 1.72e+01 1.42e+03  -6.0 3.56e+03  -9.6 6.37e-02 1.46e-01h  1
 108 -1.2392939e-01 1.74e+01 1.36e+03  -6.0 1.26e+04 -10.1 1.42e-01 4.50e-02h  1
 109 -1.2398189e-01 1.70e+01 1.33e+03  -6.0 1.63e+03  -9.7 7.18e-02 2.32e-02h  1
iter    objective    inf_pr   inf_du lg(mu)  ||d||  lg(rg) alpha_du alpha_pr  ls
 110 -1.2470946e-01 1.56e+01 1.21e+03  -6.0 1.02e+04 -10.2 3.68e-01 8.74e-02h  1
 111 -1.2751254e-01 7.02e+00 3.60e+02  -6.0 3.40e+03  -9.7 1.00e+00 7.08e-01h  1
 112 -1.2762031e-01 7.59e+00 3.50e+02  -6.0 1.90e+03  -9.3 7.88e-02 2.98e-02h  1
 113 -1.2765712e-01 7.42e+00 3.41e+02  -6.0 1.51e+03  -9.8 8.89e-02 2.34e-02h  1
 114 -1.2785970e-01 6.68e+00 2.78e+02  -6.0 5.75e+02  -9.4 3.32e-04 1.85e-01h  1
 115 -1.2841943e-01 5.77e+00 1.92e+02  -6.0 1.42e+03  -9.8 1.11e-01 3.12e-01h  1
 116 -1.2888651e-01 4.77e+00 1.52e+02  -6.0 2.66e+03 -10.3 1.69e-01 2.08e-01h  1
 117 -1.2862816e-01 1.66e+00 1.11e+02  -6.0 4.14e+02  -8.1 3.30e-02 6.01e-01h  1
 118 -1.2860162e-01 1.32e+00 8.68e+01  -6.0 1.06e+01  -6.8 2.17e-01 2.16e-01h  1
 119 -1.2858190e-01 7.82e-01 4.09e+01  -6.0 1.98e+01  -7.2 4.83e-01 6.26e-01h  1
iter    objective    inf_pr   inf_du lg(mu)  ||d||  lg(rg) alpha_du alpha_pr  ls
 120 -1.2876787e-01 1.43e-01 6.72e+00  -6.0 2.96e+01  -7.7 1.00e+00 1.00e+00h  1
 121 -1.2886619e-01 9.10e-02 1.03e+03  -6.0 5.62e+01  -8.2 1.00e+00 3.31e-01h  1
 122 -1.2906207e-01 4.90e-01 6.22e+02  -6.0 1.19e+02  -8.7 5.41e-01 4.77e-01h  1
 123 -1.2923488e-01 4.40e-01 5.03e+02  -6.0 6.27e+02  -9.1 2.72e-01 2.62e-01h  1
 124 -1.2963913e-01 3.04e-01 6.43e+03  -6.0 8.46e+02  -9.6 1.00e+00 4.78e-01h  1
 125 -1.3003004e-01 8.62e-01 1.90e+04  -6.0 2.92e+03 -10.1 4.49e-01 2.18e-01h  1
 126 -1.3022331e-01 6.53e-01 9.14e+06  -6.0 5.04e+02  -8.8 1.38e-03 2.89e-01h  1
 127 -1.3018219e-01 6.42e-01 8.92e+06  -6.0 5.55e+03  -8.3 5.06e-03 2.42e-02h  1
 128 -1.3017960e-01 6.31e-01 8.76e+06  -6.0 2.42e+02  -8.8 1.35e-04 1.79e-02h  2
 129 -1.3019248e-01 4.98e-01 6.91e+06  -6.0 1.01e+01  -6.6 1.51e-01 2.11e-01h  1
iter    objective    inf_pr   inf_du lg(mu)  ||d||  lg(rg) alpha_du alpha_pr  ls
 130 -1.3019437e-01 4.12e-01 5.68e+06  -6.0 1.09e+01  -7.1 5.23e-01 1.78e-01h  1
 131 -1.3019064e-01 4.68e-02 3.87e+05  -6.0 2.01e+01  -7.5 3.58e-01 9.32e-01h  1
 132 -1.3021847e-01 3.08e-02 2.06e+05  -6.0 5.28e+01  -8.0 2.43e-01 4.67e-01h  1
 133 -1.3029308e-01 3.66e-02 1.58e+05  -6.0 1.62e+02  -8.5 6.89e-01 2.31e-01f  1
 134 -1.3042601e-01 8.46e-02 1.36e+05  -6.0 1.79e+02  -8.1 1.70e-01 1.34e-01h  1
 135 -1.3057600e-01 2.09e-01 5.73e+04  -6.0 2.12e+02  -8.5 8.07e-01 5.80e-01h  1
 136 -1.3065055e-01 1.86e-01 3.97e+04  -6.0 2.50e+01  -7.2 2.37e-01 3.08e-01h  1
 137 -1.3072510e-01 1.70e-01 3.09e+04  -6.0 4.53e+01  -7.7 3.47e-01 2.22e-01h  1
 138 -1.3098732e-01 4.83e-02 3.05e+02  -6.0 1.58e+01  -7.3 1.00e+00 1.00e+00h  1
 139 -1.3109647e-01 3.55e-02 2.01e+02  -6.0 4.31e+01  -7.7 6.42e-01 3.42e-01h  1
iter    objective    inf_pr   inf_du lg(mu)  ||d||  lg(rg) alpha_du alpha_pr  ls
 140 -1.3142735e-01 1.15e-01 7.62e+01  -6.0 9.91e+01  -8.2 1.00e+00 8.42e-01f  1
 141 -1.3181738e-01 9.64e-01 1.98e+02  -6.0 3.00e+02  -8.7 3.30e-01 5.96e-01h  1
 142 -1.3190098e-01 1.05e+00 7.95e+01  -6.0 1.12e+03  -9.2 1.57e-01 6.70e-02h  1
 143 -1.3190202e-01 1.05e+00 1.92e+02  -6.0 2.67e+02  -6.9 2.98e-02 1.61e-03h  1
 144 -1.3196325e-01 9.15e-01 2.04e+02  -6.0 5.90e+01  -7.4 1.21e-01 1.29e-01f  1
 145 -1.3198209e-01 8.81e-01 8.65e+01  -6.0 1.55e+02  -7.9 1.51e-02 3.69e-02h  1
 146 -1.3229618e-01 1.33e+00 2.94e+02  -6.0 1.94e+02  -8.4 2.55e-01 5.07e-01f  1
 147 -1.3277306e-01 7.64e+00 2.29e+02  -6.0 2.61e+03  -8.9 8.32e-02 1.00e-01h  1
 148 -1.3290248e-01 7.64e+00 5.72e+02  -6.0 6.01e+02  -8.4 4.00e-01 7.32e-02h  1
 149 -1.3290448e-01 7.59e+00 1.22e+02  -6.0 1.11e+02  -7.1 2.91e-02 6.59e-03h  1
iter    objective    inf_pr   inf_du lg(mu)  ||d||  lg(rg) alpha_du alpha_pr  ls
 150 -1.3291192e-01 7.36e+00 2.60e+02  -6.0 7.44e+01  -6.7 4.44e-02 3.12e-02h  1
 151 -1.3292549e-01 3.38e+00 1.04e+02  -6.0 1.89e+01  -7.1 8.66e-01 5.41e-01h  1
Error in an AMPL evaluation. Run with "halt_on_ampl_error yes" to see details.
Warning: Cutting back alpha due to evaluation error
 152 -1.3292549e-01 3.38e+00 9.84e+01  -6.0 1.45e+00  -1.3 2.50e-02 2.98e-05h  2
 153 -1.3292706e-01 3.92e+00 9.99e+01  -6.0 1.38e+04    -  7.75e-02 6.04e-02h  1
Error in an AMPL evaluation. Run with "halt_on_ampl_error yes" to see details.
Warning: Cutting back alpha due to evaluation error
 154 -1.3292729e-01 3.92e+00 1.03e+02  -6.0 2.08e+00  -1.8 1.38e-02 1.50e-03h  2
 155 -1.3292791e-01 3.90e+00 1.18e+02  -6.0 2.25e+00  -2.3 7.35e-02 5.32e-03h  2
 156 -1.3292935e-01 3.78e+00 1.38e+02  -6.0 2.60e+00  -2.7 1.74e-01 2.90e-02h  2
 157 -1.3292996e-01 3.72e+00 1.74e+02  -6.0 2.79e+00  -3.2 3.01e-01 1.77e-02h  3
 158 -1.3293015e-01 3.66e+00 1.88e+02  -6.0 2.86e+00  -3.7 1.71e-01 1.41e-02h  3
 159 -1.3293349e-01 3.32e+00 2.21e+02  -6.0 2.76e+00  -4.2 9.71e-03 9.34e-02h  4
iter    objective    inf_pr   inf_du lg(mu)  ||d||  lg(rg) alpha_du alpha_pr  ls
 160 -1.3296573e-01 9.27e-01 1.14e+03  -6.0 2.66e+00  -4.6 3.94e-02 7.21e-01h  1
 161r-1.3296573e-01 9.27e-01 9.99e+02  -0.3 0.00e+00  -5.1 0.00e+00 3.23e-07R  4
 162r-1.3287369e-01 9.26e-01 9.99e+02  -0.3 1.59e+04    -  3.63e-07 1.65e-06f  1
 163 -1.3299036e-01 9.25e-01 8.06e+02  -6.0 2.87e+04    -  1.59e-02 1.65e-02h  1
 164 -1.3310371e-01 9.11e-01 7.87e+02  -6.0 1.76e+04    -  3.65e-02 1.91e-02h  1
 165 -1.3338538e-01 8.79e-01 7.39e+02  -6.0 1.42e+04    -  8.52e-02 5.54e-02h  1
 166 -1.3442398e-01 5.49e+00 6.53e+02  -6.0 1.46e+04    -  1.10e-01 1.17e-01h  1
 167 -1.3459279e-01 5.11e+00 6.13e+02  -6.0 3.22e+03    -  1.44e-01 6.69e-02h  2
 168 -1.3461618e-01 5.03e+00 9.16e+02  -6.0 3.58e+03    -  2.33e-01 1.64e-02h  2
 169 -1.3476400e-01 4.47e+00 5.60e+02  -6.0 2.08e+03    -  7.70e-02 1.37e-01h  1
iter    objective    inf_pr   inf_du lg(mu)  ||d||  lg(rg) alpha_du alpha_pr  ls
 170 -1.3480987e-01 4.28e+00 3.30e+03  -6.0 1.60e+03    -  1.98e-01 5.27e-02h  1
 171 -1.3487872e-01 4.03e+00 1.64e+03  -6.0 1.38e+03    -  6.22e-02 8.96e-02h  2
 172 -1.3489007e-01 3.99e+00 4.81e+03  -6.0 5.25e+03    -  6.39e-02 1.00e-02h  4
 173 -1.3489716e-01 3.96e+00 8.69e+03  -6.0 7.61e+03    -  6.65e-02 6.19e-03h  5
 174 -1.3489915e-01 3.95e+00 1.18e+04  -6.0 9.37e+03    -  4.84e-02 1.85e-03h  7
 175 -1.3489941e-01 3.95e+00 1.58e+04  -6.0 9.79e+03    -  5.51e-02 2.71e-04h 10
Error in an AMPL evaluation. Run with "halt_on_ampl_error yes" to see details.
Warning: SOC step rejected due to evaluation error
 176 -1.3489952e-01 3.95e+00 1.93e+04  -6.0 9.56e+03    -  4.21e-02 1.30e-04h 11
 177 -1.3489957e-01 3.95e+00 2.36e+04  -6.0 9.39e+03    -  4.67e-02 6.24e-05h 12
 178 -1.3492490e-01 3.81e+00 2.27e+04  -6.0 9.20e+03    -  3.67e-02 3.67e-02s 19
 179 -1.3494142e-01 3.74e+00 2.23e+04  -6.0 1.44e+04    -  1.72e-02 1.72e-02s 19
iter    objective    inf_pr   inf_du lg(mu)  ||d||  lg(rg) alpha_du alpha_pr  ls
 180 -1.3497107e-01 9.72e+00 2.22e+04  -6.0 1.71e+05    -  4.20e-03 4.20e-03s 19
 181 -1.3497967e-01 9.60e+00 2.19e+04  -6.0 2.38e+03    -  1.27e-02 1.27e-02s 19
 182 -1.3498619e-01 9.56e+00 2.18e+04  -6.0 6.10e+03    -  8.77e-03 8.77e-03s 19
 183 -1.3507053e-01 7.00e+01 2.14e+04  -6.0 1.40e+05    -  1.56e-02 1.56e-02s 19
 184 -1.3508034e-01 7.01e+01 2.13e+04  -6.0 3.42e+04    -  6.65e-03 6.65e-03s 19
 185 -1.3509721e-01 6.86e+01 2.08e+04  -6.0 2.47e+03    -  2.18e-02 2.18e-02s 19
 186 -1.3509283e-01 6.66e+01 2.02e+04  -6.0 9.72e+03    -  2.89e-02 2.89e-02s 19
 187 -1.3510144e-01 6.28e+01 1.91e+04  -6.0 5.07e+03    -  5.65e-02 5.65e-02s 19
 188 -1.3510386e-01 6.19e+01 1.88e+04  -6.0 4.07e+03    -  1.43e-02 1.43e-02s 19
 189r-1.3510386e-01 6.19e+01 1.00e+03   1.5 0.00e+00    -  0.00e+00 0.00e+00R  1
iter    objective    inf_pr   inf_du lg(mu)  ||d||  lg(rg) alpha_du alpha_pr  ls
 190r-1.3504149e-01 6.19e+01 1.00e+03   1.5 5.50e+08    -  1.25e-07 7.77e-08f  1
 191 -1.3504486e-01 6.17e+01 9.84e+02  -6.0 7.57e+02    -  3.76e-06 3.69e-03h  1
 192 -1.3505777e-01 5.90e+01 9.38e+02  -6.0 4.73e+02    -  3.90e-03 4.34e-02h  1
 193 -1.3506547e-01 5.72e+01 9.10e+02  -6.0 3.68e+02    -  1.50e-02 3.02e-02h  1
 194 -1.3508289e-01 5.25e+01 8.34e+02  -6.0 5.16e+01    -  1.22e-02 8.30e-02h  1
 195 -1.3508589e-01 5.05e+01 8.04e+02  -6.0 4.69e+01    -  1.25e-01 3.70e-02h  1
 196 -1.3511026e-01 3.50e+01 7.59e+02  -6.0 4.44e+01    -  6.13e-02 3.07e-01h  1
 197 -1.3512728e-01 2.51e+01 4.31e+02  -6.0 3.12e+01    -  2.37e-01 2.82e-01h  1
 198 -1.3515842e-01 1.28e+01 2.03e+02  -6.0 2.35e+01    -  5.88e-01 4.91e-01h  1
 199 -1.3518474e-01 1.45e-02 6.10e+02  -6.0 5.67e+00    -  5.75e-01 1.00e+00h  1
iter    objective    inf_pr   inf_du lg(mu)  ||d||  lg(rg) alpha_du alpha_pr  ls
 200 -1.3518607e-01 5.06e-06 7.47e+00  -6.0 1.26e-01    -  9.82e-01 1.00e+00h  1
 201 -1.3522172e-01 3.25e-02 3.27e+02  -6.0 1.06e+01    -  8.38e-02 1.00e+00f  1
 202 -1.3523999e-01 3.05e-02 2.31e+02  -6.0 1.23e+02    -  3.06e-02 5.93e-02h  1
 203 -1.3522609e-01 3.00e-02 1.90e+02  -6.0 2.04e+02    -  1.29e-02 2.38e-02h  1
 204 -1.3524601e-01 2.69e-02 2.05e+02  -6.0 5.07e+01    -  4.95e-02 1.03e-01f  1
 205 -1.3522364e-01 2.21e-02 1.95e+02  -6.0 1.20e+01    -  7.04e-01 2.71e-01h  1
 206 -1.3531482e-01 2.38e-02 1.08e+02  -6.0 2.73e+01    -  6.87e-01 3.83e-01h  1
 207 -1.3532100e-01 2.39e-02 1.18e+02  -6.0 2.56e+01    -  8.25e-01 5.46e-02h  4
 208 -1.3532677e-01 2.50e-02 1.15e+02  -6.0 1.40e+02    -  8.69e-01 2.37e-02h  5
 209 -1.3532595e-01 2.52e-02 1.15e+02  -6.0 9.63e+03    -  3.61e-02 8.58e-04h  8
iter    objective    inf_pr   inf_du lg(mu)  ||d||  lg(rg) alpha_du alpha_pr  ls
 210 -1.3535070e-01 2.71e-02 7.49e+01  -6.0 5.34e+00  -5.6 1.00e+00 3.74e-01H  1
 211 -1.3545901e-01 2.13e-02 1.34e+02  -6.0 3.47e+00  -6.1 6.43e-02 1.00e+00H  1
 212 -1.3557660e-01 6.52e-03 5.04e+01  -6.0 1.48e+01  -6.6 3.75e-01 1.00e+00H  1
 213 -1.3560512e-01 2.05e-02 7.94e+01  -6.0 2.37e+02  -7.0 1.12e-01 1.93e-01h  1
 214 -1.3559452e-01 1.62e-02 2.65e+02  -6.0 1.52e+01  -5.7 1.83e-01 6.45e-01f  1
 215 -1.3559709e-01 1.45e-02 2.33e+02  -6.0 1.62e+00  -4.4 5.51e-01 1.01e-01h  1
 216 -1.3560072e-01 9.73e-03 1.76e+02  -6.0 2.13e+00  -3.9 1.70e-01 3.29e-01h  1
 217 -1.3559571e-01 2.73e-03 6.78e+00  -6.0 1.55e+00  -4.4 9.61e-01 7.35e-01f  1
 218 -1.3557343e-01 9.80e-04 2.67e+01  -6.0 8.53e-01  -4.9 6.86e-01 1.00e+00f  1
 219 -1.3557467e-01 1.01e-03 1.44e+01  -6.0 5.21e-01  -5.4 8.33e-01 1.58e-01h  2
iter    objective    inf_pr   inf_du lg(mu)  ||d||  lg(rg) alpha_du alpha_pr  ls
 220 -1.3558590e-01 1.96e-02 8.57e+00  -6.0 1.17e+00  -5.9 7.86e-01 1.00e+00h  1
 221 -1.3560099e-01 3.42e-03 1.17e+00  -6.0 1.74e+00  -6.3 1.00e+00 1.00e+00h  1
 222 -1.3562360e-01 2.87e-03 9.00e+00  -6.0 3.02e+00  -6.8 1.00e+00 5.81e-01h  1
 223 -1.3564822e-01 1.21e-02 2.18e+00  -6.0 8.77e+00  -7.3 1.00e+00 1.00e+00f  1
 224 -1.3568209e-01 6.50e-03 1.29e-01  -6.0 2.67e+01  -7.8 1.00e+00 1.00e+00h  1
 225 -1.3574263e-01 2.28e-02 6.92e-01  -6.0 9.77e+01  -8.2 9.65e-01 8.89e-01h  1
 226 -1.3579134e-01 1.55e-01 6.56e+00  -6.0 1.10e+02  -8.7 3.61e-01 1.00e+00f  1
 227 -1.3580957e-01 1.50e-01 6.34e+00  -6.0 1.00e+03  -9.2 5.54e-02 4.29e-02h  1
 228 -1.3589044e-01 1.49e+00 3.49e+01  -6.0 1.11e+03  -9.7 5.82e-01 4.48e-01h  1
 229 -1.3590010e-01 4.92e+00 3.27e+01  -6.0 3.88e+04 -10.1 3.60e-02 7.52e-02H  1
iter    objective    inf_pr   inf_du lg(mu)  ||d||  lg(rg) alpha_du alpha_pr  ls
 230 -1.3589869e-01 4.91e+00 3.26e+01  -6.0 1.05e+05    -  3.36e-03 2.27e-03h  2
 231 -1.3589400e-01 5.06e+00 6.06e+01  -6.0 8.18e+04 -10.6 1.43e-02 6.88e-03h  3
 232 -1.3590152e-01 4.85e+00 4.26e+01  -6.0 5.10e+03    -  3.67e-01 4.03e-02h  2
 233 -1.3592107e-01 3.76e+00 7.59e+01  -6.0 1.76e+03    -  1.00e+00 2.06e-01h  1
 234 -1.3597417e-01 2.59e+00 3.40e+01  -6.0 1.39e+03    -  3.81e-01 7.35e-01h  1
 235 -1.3620003e-01 1.82e+00 3.57e+01  -6.0 4.80e+02    -  2.42e-01 1.00e+00h  1
 236 -1.3619028e-01 4.97e-03 3.69e+00  -6.0 1.53e+01  -8.4 8.87e-01 1.00e+00h  1
 237 -1.3618964e-01 1.84e-02 4.99e-02  -6.0 3.51e+01  -8.9 1.00e+00 1.00e+00h  1
 238 -1.3618720e-01 1.49e-01 1.06e-01  -6.0 9.99e+01  -9.3 1.00e+00 1.00e+00h  1
 239 -1.3618017e-01 1.08e+00 6.56e-01  -6.0 2.68e+02  -9.8 1.00e+00 1.00e+00h  1
iter    objective    inf_pr   inf_du lg(mu)  ||d||  lg(rg) alpha_du alpha_pr  ls
 240 -1.3617519e-01 5.05e+00 2.69e+01  -6.0 2.15e+03    -  4.66e-01 2.45e-01h  3
 241 -1.3610160e-01 6.96e+00 1.01e+02  -6.0 2.12e+03    -  2.76e-01 1.00e+00H  1
 242 -1.3611793e-01 6.87e+00 6.16e+02  -6.0 2.87e+03 -10.3 1.49e-01 2.05e-02h  2
 243 -1.3615144e-01 1.29e+01 2.18e+02  -6.0 8.83e+02    -  7.20e-01 1.00e+00h  1
 244 -1.3618173e-01 6.79e-01 1.46e+02  -6.0 2.19e+02    -  1.00e+00 1.00e+00h  1
 245 -1.3616764e-01 1.48e+00 9.65e+00  -6.0 3.05e+02    -  1.00e+00 1.00e+00h  1
 246 -1.3616921e-01 1.62e-02 1.73e-01  -6.0 3.32e+01    -  1.00e+00 1.00e+00h  1
 247 -1.3617036e-01 9.78e-04 8.42e-03  -6.0 7.78e+00    -  1.00e+00 1.00e+00h  1
 248 -1.3617037e-01 5.64e-08 7.87e-07  -6.0 5.82e-02    -  1.00e+00 1.00e+00h  1
 249 -1.3665157e-01 6.35e-01 2.58e+01  -7.5 3.64e+03    -  2.82e-01 1.92e-01f  1
iter    objective    inf_pr   inf_du lg(mu)  ||d||  lg(rg) alpha_du alpha_pr  ls
 250 -1.3720711e-01 1.47e+00 3.37e+01  -7.5 3.37e+03    -  2.24e-01 2.84e-01h  1
 251 -1.3741654e-01 1.30e+00 2.03e+02  -7.5 1.39e+03  -9.9 4.67e-02 1.13e-01h  1
 252 -1.3753197e-01 1.27e+00 1.81e+02  -7.5 3.14e+03 -10.4 8.23e-02 5.97e-02h  1
 253 -1.3755235e-01 1.47e+00 3.40e+02  -7.5 3.04e+04 -10.8 1.94e-02 3.64e-03h  1
 254 -1.3757560e-01 5.02e+00 2.04e+03  -7.5 7.43e+04 -11.3 9.83e-03 6.31e-03h  1
 255 -1.3757498e-01 5.02e+00 2.30e+04  -7.5 3.22e+04 -10.9 5.44e-05 2.71e-04h  7
 256 -1.3776456e-01 5.66e+00 1.88e+04  -7.5 1.60e+03 -10.5 2.20e-01 1.95e-01h  1
 257 -1.3786669e-01 1.97e+01 1.76e+04  -7.5 9.27e+03 -10.9 5.92e-02 1.01e-01h  1
 258 -1.3787717e-01 4.89e+01 1.75e+04  -7.5 3.34e+05 -10.5 1.29e-04 3.87e-03h  1
 259 -1.3788051e-01 4.86e+01 1.75e+04  -7.5 3.61e+03 -11.0 2.09e-04 4.80e-03h  1
iter    objective    inf_pr   inf_du lg(mu)  ||d||  lg(rg) alpha_du alpha_pr  ls
 260 -1.3791001e-01 4.62e+01 1.68e+04  -7.5 2.85e+03 -11.5 2.37e-02 5.08e-02h  1
 261 -1.3792970e-01 4.47e+01 1.61e+04  -7.5 2.55e+03    -  5.54e-02 3.25e-02h  1
 262 -1.3799978e-01 3.94e+01 1.41e+04  -7.5 2.48e+03    -  1.32e-01 1.18e-01h  1
 263 -1.3810894e-01 3.16e+01 1.12e+04  -7.5 2.18e+03    -  2.72e-01 1.96e-01h  1
 264 -1.3824117e-01 2.28e+01 8.13e+03  -7.5 1.96e+03    -  1.08e-02 2.87e-01h  1
 265 -1.3834077e-01 1.72e+01 6.02e+03  -7.5 1.34e+03    -  2.15e-01 2.62e-01h  1
 266 -1.3833877e-01 1.73e+01 6.00e+03  -7.5 3.58e+04 -11.0 2.76e-03 2.03e-03h  1
 267 -1.3837675e-01 1.55e+01 5.37e+03  -7.5 1.10e+03    -  2.51e-01 9.98e-02h  1
 268 -1.3845499e-01 1.19e+01 4.13e+03  -7.5 2.47e+03    -  6.12e-02 2.35e-01h  1
 269 -1.3847386e-01 1.12e+01 3.80e+03  -7.5 1.66e+03    -  6.01e-01 6.13e-02h  1
iter    objective    inf_pr   inf_du lg(mu)  ||d||  lg(rg) alpha_du alpha_pr  ls
 270 -1.3862731e-01 5.25e+00 1.77e+03  -7.5 6.55e+02    -  8.32e-01 5.32e-01h  1
 271 -1.3874341e-01 3.30e+00 9.62e+02  -7.5 4.74e+02    -  4.84e-01 4.58e-01h  1
 272 -1.3897403e-01 2.05e+00 3.49e+02  -7.5 3.41e+02 -11.5 1.59e-01 9.61e-01h  1
 273 -1.3900193e-01 1.93e+00 3.48e+02  -7.5 6.98e+02 -12.0 9.65e-02 1.25e-01h  1
 274 -1.3900278e-01 1.93e+00 3.50e+02  -7.5 1.09e+04 -10.7 1.71e-04 2.12e-03h  1
 275 -1.3902173e-01 2.47e+00 4.39e+02  -7.5 1.73e+03 -11.1 5.51e-03 7.51e-02f  1
 276 -1.3910667e-01 2.95e+00 8.23e+02  -7.5 4.03e+02 -11.6 6.92e-02 3.61e-01h  1
 277 -1.3913546e-01 2.78e+00 9.90e+02  -7.5 2.01e+03 -12.1 6.96e-03 1.03e-01h  1
 278 -1.3915713e-01 2.52e+00 9.85e+02  -7.5 2.10e+03 -12.6 6.41e-02 9.35e-02h  1
 279 -1.3919349e-01 2.03e+00 8.73e+02  -7.5 7.35e+02 -12.1 1.57e-01 1.76e-01h  1
iter    objective    inf_pr   inf_du lg(mu)  ||d||  lg(rg) alpha_du alpha_pr  ls
 280 -1.3936199e-01 1.07e+02 2.48e+03  -7.5 3.61e+03 -12.6 1.63e-01 8.43e-01h  1
 281 -1.3946812e-01 9.03e+01 4.43e+03  -7.5 3.39e+03    -  4.28e-03 5.38e-01h  1
 282 -1.3947433e-01 8.69e+01 5.86e+03  -7.5 5.89e+02 -11.3 1.89e-01 3.80e-02h  1
 283 -1.3953299e-01 3.79e+01 5.46e+03  -7.5 1.05e+03 -11.8 5.21e-03 6.36e-01h  1
 284 -1.3957877e-01 3.93e+01 2.94e+03  -7.5 2.64e+03 -12.2 1.91e-01 4.60e-01h  1
 285 -1.3959039e-01 3.52e+01 2.63e+03  -7.5 1.15e+03 -11.8 3.82e-01 1.05e-01h  1
 286 -1.3963586e-01 2.88e+01 1.67e+03  -7.5 1.90e+03 -12.3 4.74e-01 3.66e-01h  1
 287 -1.3963586e-01 2.88e+01 1.67e+03  -7.5 1.81e+05 -12.8 9.82e-03 4.43e-05h  9
 288 -1.3964090e-01 8.79e+01 1.60e+03  -7.5 4.98e+04 -12.3 5.70e-02 4.23e-02h  1
 289 -1.3966789e-01 7.48e+01 5.26e+03  -7.5 3.25e+03    -  1.56e-03 1.53e-01h  1
iter    objective    inf_pr   inf_du lg(mu)  ||d||  lg(rg) alpha_du alpha_pr  ls
 290 -1.3968678e-01 7.88e+01 7.78e+03  -7.5 1.05e+04 -11.9 5.11e-02 8.79e-02h  1
 291 -1.3969012e-01 9.11e+01 7.56e+03  -7.5 6.22e+04    -  3.10e-02 1.66e-02h  1
 292 -1.3969145e-01 9.07e+01 1.70e+04  -7.5 7.47e+03    -  5.05e-02 5.23e-03h  1
 293 -1.3969163e-01 9.03e+01 7.47e+03  -7.5 3.88e+03    -  1.67e-01 3.91e-03h  1
 294 -1.3969280e-01 8.97e+01 1.80e+03  -7.5 1.46e+04    -  2.03e-03 7.29e-03h  1
 295 -1.3969459e-01 8.84e+01 3.11e+03  -7.5 6.47e+03    -  7.22e-03 1.57e-02h  1
 296 -1.3969634e-01 9.31e+01 4.58e+03  -7.5 4.32e+04    -  4.67e-02 1.64e-02h  1
 297 -1.3969670e-01 9.24e+01 1.34e+04  -7.5 1.40e+04    -  7.62e-04 8.63e-03h  1
 298 -1.3970177e-01 9.44e+01 1.71e+04  -7.5 1.06e+04    -  3.40e-02 8.74e-02h  1
 299 -1.3970419e-01 9.08e+01 1.60e+04  -7.5 6.98e+03    -  2.37e-02 6.15e-02h  1
iter    objective    inf_pr   inf_du lg(mu)  ||d||  lg(rg) alpha_du alpha_pr  ls
 300 -1.3970549e-01 8.88e+01 1.57e+04  -7.5 5.05e+03    -  1.01e-02 2.33e-02h  1
 301 -1.3970643e-01 8.75e+01 1.54e+04  -7.5 5.82e+03    -  7.14e-02 1.63e-02h  1
 302 -1.3971985e-01 5.97e+01 1.79e+04  -7.5 2.04e+03    -  1.83e-02 3.33e-01h  1
 303 -1.3972049e-01 5.92e+01 1.72e+04  -7.5 2.12e+03    -  7.48e-02 8.37e-03h  1
 304 -1.3972085e-01 5.89e+01 1.52e+04  -7.5 2.16e+03    -  1.87e-01 4.09e-03h  1
 305 -1.3972184e-01 5.77e+01 1.82e+04  -7.5 2.21e+03    -  4.29e-01 2.03e-02h  1
 306 -1.3976497e-01 6.54e+01 2.14e+02  -7.5 2.20e+03    -  5.16e-06 1.00e+00h  1
 307 -1.3977181e-01 5.98e+01 8.26e+01  -7.5 2.54e+03    -  1.24e-02 1.01e-01h  1
 308 -1.3977730e-01 4.82e+01 2.28e+02  -7.5 1.06e+03    -  2.33e-02 2.08e-01h  1
 309 -1.3980137e-01 1.82e+01 7.71e+02  -7.5 1.06e+03 -10.6 2.95e-01 1.00e+00h  1
iter    objective    inf_pr   inf_du lg(mu)  ||d||  lg(rg) alpha_du alpha_pr  ls
 310 -1.3982984e-01 4.76e+01 9.24e+02  -7.5 3.12e+03    -  6.02e-01 5.02e-01h  1
 311 -1.3984013e-01 4.90e+01 8.64e+02  -7.5 5.78e+03    -  6.51e-02 1.07e-01h  1
 312 -1.3983779e-01 1.96e-01 1.06e+02  -7.5 8.00e+01    -  1.00e+00 1.00e+00h  1
 313 -1.3986827e-01 5.57e+01 1.78e+02  -7.5 6.83e+03    -  6.57e-02 2.63e-01h  1
 314 -1.3988074e-01 4.10e+01 2.58e+03  -7.5 1.60e+03    -  9.54e-03 4.67e-01h  1
 315 -1.3985978e-01 1.20e+01 8.22e+03  -7.5 2.15e+03    -  5.29e-04 6.06e-01H  1
 316 -1.3986197e-01 1.00e+01 6.84e+03  -7.5 7.41e+02    -  4.22e-01 1.68e-01h  1
 317 -1.3986165e-01 7.30e-02 1.54e+01  -7.5 6.32e+01    -  9.34e-01 1.00e+00h  1
 318 -1.3988224e-01 2.78e+01 1.14e+02  -7.5 1.01e+04    -  6.79e-02 1.21e-01h  1
 319 -1.3987073e-01 8.48e+00 3.21e+01  -7.5 6.78e+02    -  1.00e+00 1.00e+00h  1
iter    objective    inf_pr   inf_du lg(mu)  ||d||  lg(rg) alpha_du alpha_pr  ls
 320 -1.3988393e-01 1.13e+01 4.41e+01  -7.5 7.68e+02    -  6.89e-01 9.83e-01h  1
 321 -1.3988518e-01 5.13e-02 1.85e+00  -7.5 4.97e+01    -  1.00e+00 1.00e+00h  1
 322 -1.3988510e-01 3.35e-04 1.44e-01  -7.5 4.13e+00    -  8.45e-01 1.00e+00h  1
 323 -1.3988511e-01 1.41e-05 1.47e-04  -7.5 8.38e-01    -  1.00e+00 1.00e+00h  1
 324 -1.3988512e-01 4.39e-08 6.60e-07  -7.5 4.67e-02    -  1.00e+00 1.00e+00h  1
 325 -1.3988512e-01 3.05e-10 2.62e-11  -7.5 2.90e-04    -  1.00e+00 1.00e+00h  1
 326 -1.3988928e-01 1.93e-01 2.71e+00  -9.0 2.25e+02    -  3.70e-01 4.44e-01h  1
 327 -1.3989844e-01 4.67e+01 1.51e+02  -9.0 5.07e+04    -  4.83e-02 3.02e-02h  1
 328 -1.3989998e-01 4.70e+01 1.57e+02  -9.0 4.04e+04    -  2.30e-02 5.39e-03h  1
 329 -1.3991211e-01 5.14e+01 1.72e+02  -9.0 2.53e+03    -  2.11e-02 6.22e-01h  1
iter    objective    inf_pr   inf_du lg(mu)  ||d||  lg(rg) alpha_du alpha_pr  ls
 330 -1.3991247e-01 5.10e+01 1.71e+02  -9.0 4.27e+03    -  4.21e-04 7.35e-03h  1
 331 -1.3991801e-01 4.05e+01 8.25e+01  -9.0 1.51e+03    -  1.49e-02 2.73e-01h  1
 332 -1.3991923e-01 3.95e+01 8.03e+01  -9.0 3.04e+03    -  1.57e-02 2.71e-02h  1
 333 -1.3992707e-01 3.26e+01 5.66e+01  -9.0 1.64e+03    -  3.24e-01 2.89e-01h  1
 334 -1.3992965e-01 3.06e+01 5.25e+01  -9.0 1.69e+03    -  4.57e-02 7.18e-02h  1
 335 -1.3993357e-01 2.82e+01 1.52e+02  -9.0 1.70e+03    -  2.18e-01 9.47e-02h  1
 336 -1.3995125e-01 2.55e+01 5.03e+04  -9.0 1.62e+03    -  5.01e-03 3.95e-01h  1
 337 -1.3995195e-01 2.53e+01 4.98e+04  -9.0 1.72e+03    -  4.28e-01 8.34e-03h  1
 338 -1.3995465e-01 2.44e+01 4.81e+04  -9.0 3.00e+03    -  1.99e-02 3.60e-02h  1
 339 -1.3995569e-01 2.37e+01 4.66e+04  -9.0 5.66e+03    -  5.33e-03 2.94e-02h  1
iter    objective    inf_pr   inf_du lg(mu)  ||d||  lg(rg) alpha_du alpha_pr  ls
 340 -1.3995712e-01 2.25e+01 4.42e+04  -9.0 9.35e+02    -  3.21e-02 5.27e-02h  1
 341 -1.3996348e-01 1.76e+01 3.45e+04  -9.0 2.57e+02    -  1.02e-01 2.20e-01h  1
 342 -1.3998160e-01 7.91e+00 1.43e+04  -9.0 2.70e+02    -  8.80e-02 5.85e-01h  1
 343 -1.4002150e-01 1.58e+00 5.67e+02  -9.0 2.56e+02    -  6.52e-01 1.00e+00h  1
 344 -1.4003467e-01 1.25e+00 5.68e+02  -9.0 2.72e+02    -  3.33e-01 1.87e-01h  1
 345 -1.4005750e-01 1.08e+00 6.99e+03  -9.0 3.21e+02    -  8.57e-01 2.58e-01h  1
 346r-1.4005750e-01 1.08e+00 1.00e+03  -0.2 0.00e+00    -  0.00e+00 5.21e-09R  2
 347r-1.4005794e-01 1.08e+00 6.28e+03  -0.2 4.34e+05    -  8.02e-09 3.51e-09f  1
 348 -1.4005811e-01 1.06e+00 1.61e+04  -9.0 4.09e+01    -  1.10e-06 1.77e-02h  1
 349 -1.4005626e-01 1.05e+00 1.60e+04  -9.0 7.38e+02    -  3.19e-04 8.33e-03h  1
iter    objective    inf_pr   inf_du lg(mu)  ||d||  lg(rg) alpha_du alpha_pr  ls
 350 -1.4005606e-01 1.05e+00 1.60e+04  -9.0 1.02e+02    -  1.37e-03 1.55e-03h  1
 351 -1.4005424e-01 1.03e+00 1.57e+04  -9.0 8.61e+01    -  6.16e-03 1.73e-02h  1
 352 -1.4001219e-01 5.54e-01 1.31e+05  -9.0 8.99e+01    -  3.50e-02 4.63e-01h  1
 353 -1.4000399e-01 4.92e-01 1.38e+05  -9.0 1.12e+02    -  1.09e-02 1.13e-01h  1
 354 -1.3998448e-01 3.54e-01 6.84e+04  -9.0 1.12e+02    -  1.46e-04 2.81e-01h  1
 355 -1.3997460e-01 2.47e-01 5.63e+06  -9.0 7.23e+01    -  1.59e-02 3.02e-01h  1
 356 -1.3996864e-01 1.84e-01 6.85e+06  -9.0 5.76e+01    -  2.31e-01 2.55e-01h  1
 357 -1.3996240e-01 1.15e-02 2.19e+07  -9.0 2.20e+01    -  5.94e-01 1.00e+00h  1
 358 -1.3996566e-01 1.25e-02 2.13e+07  -9.0 3.69e+02    -  1.10e-01 1.93e-02h  1
 359 -1.4003118e-01 5.98e-01 6.26e+07  -9.0 3.70e+02    -  6.94e-02 4.24e-01h  1
In iteration 359, 1 Slack too small, adjusting variable bound
iter    objective    inf_pr   inf_du lg(mu)  ||d||  lg(rg) alpha_du alpha_pr  ls
 360 -1.4003306e-01 5.25e-01 5.44e+07  -9.0 7.09e+00  -2.7 5.59e-02 1.22e-01h  1
 361 -1.4003437e-01 4.46e-01 4.58e+07  -9.0 5.58e+00  -3.2 1.33e-01 1.51e-01h  1
 362 -1.4003496e-01 3.14e-01 3.16e+07  -9.0 5.39e+00  -3.7 1.43e-08 2.95e-01h  1
 363 -1.4004131e-01 1.49e-01 1.22e+07  -9.0 3.95e+01    -  9.49e-08 5.63e-01f  1
 364 -1.4003313e-01 1.38e-01 1.07e+07  -9.0 1.39e+02    -  2.39e-01 1.23e-01h  1
 365 -1.4002000e-01 1.07e-01 7.31e+06  -9.0 7.22e+01    -  6.71e-02 3.18e-01h  1
 366 -1.4002258e-01 6.49e-03 2.78e+05  -9.0 1.19e+01    -  2.50e-01 9.69e-01f  1
 367 -1.4002172e-01 6.43e-03 2.80e+05  -9.0 1.06e+02    -  6.45e-08 1.27e-02h  4
 368 -1.4002261e-01 2.06e-03 1.49e+05  -9.0 1.55e+00    -  6.35e-01 6.84e-01h  1
 369 -1.4002317e-01 1.04e-05 4.92e+04  -9.0 6.55e-01    -  7.01e-01 1.00e+00h  1
iter    objective    inf_pr   inf_du lg(mu)  ||d||  lg(rg) alpha_du alpha_pr  ls
 370 -1.4002426e-01 1.41e-05 1.03e+04  -9.0 8.87e-01    -  9.89e-01 7.91e-01h  1
 371 -1.4006302e-01 1.94e-02 6.57e+03  -9.0 7.85e+01    -  5.47e-01 3.60e-01f  1
 372 -1.4008120e-01 2.13e-02 5.11e+03  -9.0 1.41e+02    -  5.79e-01 2.21e-01h  1
 373 -1.4009102e-01 3.85e-02 4.30e+03  -9.0 1.93e+02    -  6.01e-01 1.60e-01h  1
 374 -1.4010997e-01 1.37e-01 2.69e+03  -9.0 1.92e+02    -  7.36e-01 3.75e-01h  1
 375 -1.4012064e-01 2.17e-01 2.54e+00  -9.0 9.95e+01    -  6.39e-01 1.00e+00h  1
 376 -1.4011532e-01 4.39e-02 4.04e-01  -9.0 2.81e+01    -  2.25e-01 8.41e-01h  1
 377 -1.4011437e-01 2.05e-02 2.68e-03  -9.0 3.28e+01    -  9.31e-01 1.00e+00h  1
 378 -1.4011444e-01 8.87e-03 4.76e-04  -9.0 1.05e+02    -  9.51e-01 1.00e+00H  1
 379 -1.4011445e-01 7.72e-04 1.92e-06  -9.0 6.33e+00    -  1.00e+00 1.00e+00h  1
iter    objective    inf_pr   inf_du lg(mu)  ||d||  lg(rg) alpha_du alpha_pr  ls
 380 -1.4011445e-01 1.00e-07 2.62e-10  -9.0 7.28e-02    -  1.00e+00 1.00e+00h  1
 381 -1.4011445e-01 2.79e-10 2.84e-14  -9.0 6.23e-06    -  1.00e+00 1.00e+00h  1

Number of Iterations....: 381

                                   (scaled)                 (unscaled)
Objective...............:  -1.4011444554021163e-01   -1.4011444554021163e-01
Dual infeasibility......:   2.8393953854788379e-14    2.8393953854788379e-14
Constraint violation....:   2.7926013368081981e-10    2.7926013368081981e-10
Complementarity.........:   9.0909091024993555e-10    9.0909091024993555e-10
Overall NLP error.......:   9.0909091024993555e-10    9.0909091024993555e-10


Number of objective function evaluations             = 617
Number of objective gradient evaluations             = 379
Number of equality constraint evaluations            = 620
Number of inequality constraint evaluations          = 618
Number of equality constraint Jacobian evaluations   = 386
Number of inequality constraint Jacobian evaluations = 386
Number of Lagrangian Hessian evaluations             = 381
Total CPU secs in IPOPT (w/o function evaluations)   =    191.538
Total CPU secs in NLP function evaluations           =      6.525

EXIT: Optimal Solution Found.
